(set-logic HORN)
(set-info :source |
    Benchmark: C_VC
    Output by Princess (http://www.philipp.ruemmer.org/princess.shtml)
|)
(set-info :status unknown)
(declare-fun inv_main2 () Bool)
(declare-fun inv_main4 (Int Int Int Int Int) Bool)
(declare-fun inv_main5 (Int Int Int Int Int) Bool)
(declare-fun inv_main8 (Int Int Int Int Int) Bool)
(assert inv_main2 )
(assert (forall ((var0 Int)) (forall ((var1 Int)) (forall ((var2 Int)) (forall ((var3 Int)) (forall ((var4 Int)) (or (not (and (inv_main4 var1 var4 var2 var3 var0 ) (not (<= 0 var4 ) ) ) ) (inv_main5 var1 var4 var2 var3 var0 ) ) ) ) ) ) ) )
(assert (forall ((var0 Int)) (forall ((var1 Int)) (forall ((var2 Int)) (forall ((var3 Int)) (forall ((var4 Int)) (or (not (and (inv_main5 var1 var4 var2 var3 var0 ) (not (<= 0 (+ var2 (- 1) ) ) ) ) ) (inv_main8 var1 var4 var2 var3 var0 ) ) ) ) ) ) ) )
(assert (forall ((var0 Int)) (forall ((var1 Int)) (forall ((var2 Int)) (forall ((var3 Int)) (forall ((var4 Int)) (or (not (and (inv_main4 var1 var4 var2 var3 var0 ) (<= 0 var4 ) ) ) (inv_main4 var1 (+ var4 (- 1) ) var2 (+ var3 1 ) var0 ) ) ) ) ) ) ) )
(assert (forall ((var0 Int)) (forall ((var1 Int)) (forall ((var2 Int)) (forall ((var3 Int)) (forall ((var4 Int)) (or (not (and (inv_main5 var1 var4 var2 var3 var0 ) (<= 0 (+ var2 (- 1) ) ) ) ) (inv_main5 var1 var4 (+ var2 (- 1) ) var3 (+ var0 1 ) ) ) ) ) ) ) ) )
(assert (forall ((var0 Int)) (or (not inv_main2 ) (inv_main4 var0 var0 var0 0 0 ) ) ) )
(assert (forall ((var0 Int)) (forall ((var1 Int)) (forall ((var2 Int)) (forall ((var3 Int)) (forall ((var4 Int)) (not (and (inv_main8 var1 var4 var2 var3 var0 ) (and (not (<= 0 (+ (* (- 1) var1 ) (- 1) ) ) ) (not (= var3 (+ var0 1 ) ) ) ) ) ) ) ) ) ) ) )
(check-sat)
